9110.01
9275.55
9641.21
9195.53
8973.39
8953.78
8927.77
8427.32
8964.16
9178.28
9193.34
9814.03
9712.59
9031.14
9063.46
8959.32
8866.71
8885.92
9239.61
10155.2
9122.66
8993.97
8819.12
8817.78
8800.15
8907.85
8980.71
9034.88
8919.79
8870.21
8868.4
8843.75
8881.24
8990.04
8657.27
8461.28
8375.07
8847.16
8758.35
8930.52
8816.34
8788.61
8768.26
8866.26
8860.01
8841.01
8867.01
8823.02
9503.94
8898.76
8728.63
8681.21
8730.33
8659.72
8648.47
8854.58
8719.46
8720.3
8758.99
8708.27
8645.68
8689.44
8764.34
8880.55
8626.53
8200.58
9023.06
8869.02
8932.5
8739.25
8811.37
8850.6
8696.32
8899.66
8754.78
8687.59
8860
8759.57
8550.25
8821.3
8690.57
8641.39
8775.46
8604.12
8603.26
8801
8623.13
8624.94
8806.55
8774.21
8651.29
8691.76
8638.66
8642.8
8168.89
8415.29
8236.42
8353.22
8773.04
11240.3
